(set-logic ALL)
(declare-fun var0 () String)
(assert (str.in_re var0 (re.++ (re.union (re.+ (str.to_re "00")) (re.+ (str.to_re "111"))) (re.++ (re.* (re.+ (str.to_re "2"))) (re.++ (re.union (re.* (str.to_re "33")) (re.* (str.to_re "4"))) (re.++ (re.union (re.+ (str.to_re "555")) (re.+ (str.to_re "666"))) (re.++ (re.+ (re.* (str.to_re "77"))) (re.++ (re.+ (re.+ (str.to_re "888"))) (re.++ (re.+ (re.* (str.to_re "9"))) (re.++ (re.+ (re.union (str.to_re "aaa") (str.to_re "bb"))) (re.++ (re.* (re.* (str.to_re "c"))) (re.++ (re.+ (re.union (str.to_re "ddd") (str.to_re "e"))) (re.++ (re.* (re.union (str.to_re "fff") (str.to_re "gg"))) (re.++ (re.* (re.union (str.to_re "hh") (str.to_re "i"))) (re.++ (re.+ (re.* (str.to_re "jj"))) (re.++ (re.* (re.union (str.to_re "kkk") (str.to_re "lll"))) (re.++ (re.+ (re.* (str.to_re "m"))) (re.++ (re.+ (re.* (str.to_re "n"))) (re.++ (re.* (re.union (str.to_re "o") (str.to_re "ppp"))) (re.++ (re.union (re.union (str.to_re "q") (str.to_re "r")) (re.union (str.to_re "s") (str.to_re "ttt"))) (re.++ (re.union (re.union (str.to_re "uuu") (str.to_re "v")) (re.union (str.to_re "www") (str.to_re "xx"))) (re.++ (re.union (re.* (str.to_re "yy")) (re.* (str.to_re "zzz"))) (re.++ (re.union (re.union (str.to_re "A") (str.to_re "BB")) (re.union (str.to_re "CC") (str.to_re "DDD"))) (re.++ (re.* (re.* (str.to_re "EE"))) (re.++ (re.+ (re.* (str.to_re "FFF"))) (re.++ (re.* (re.union (str.to_re "GG") (str.to_re "HH"))) (re.++ (re.* (re.+ (str.to_re "I"))) (re.++ (re.union (re.+ (str.to_re "J")) (re.+ (str.to_re "K"))) (re.++ (re.+ (re.union (str.to_re "L") (str.to_re "M"))) (re.++ (re.union (re.union (str.to_re "NNN") (str.to_re "O")) (re.union (str.to_re "PPP") (str.to_re "Q"))) (re.++ (re.union (re.+ (str.to_re "R")) (re.+ (str.to_re "SS"))) (re.++ (re.union (re.* (str.to_re "TT")) (re.* (str.to_re "UU"))) (re.++ (re.* (re.+ (str.to_re "VVV"))) (re.++ (re.+ (re.* (str.to_re "WWW"))) (re.++ (re.* (re.+ (str.to_re "XXX"))) (re.++ (re.* (re.+ (str.to_re "Y"))) (re.++ (re.* (re.* (str.to_re "ZZZ"))) (re.++ (re.* (re.* (str.to_re "!!"))) (re.++ (re.+ (re.* (str.to_re """"""""))) (re.++ (re.* (re.union (str.to_re "##") (str.to_re "$$$"))) (re.++ (re.union (re.* (str.to_re "%")) (re.* (str.to_re "&&&"))) (re.++ (re.union (re.union (str.to_re "'") (str.to_re "((")) (re.union (str.to_re ")") (str.to_re "**"))) (re.union (re.* (str.to_re "+++")) (re.* (str.to_re ",,,")))))))))))))))))))))))))))))))))))))))))))))
(check-sat)